1 3	2 0	3 2	4 1	5 0	6 0	7 0	8 0	9 0	10  4
2 5	1	0	2	3	0	0	4	0	0
3 0	0	1	0	2	3	0	0	4	0
4 3	0	1	0	0	0	2	0	0	0
5 0	1	0	2	4	0	0	3	0	0
6 0	5	1	0	2	3	0	0	4	0
7 0	4	0	1	0	0	2	0	0	3
8 1	0	2	0	0	0	0	0	0	3
9 0	4	0	2	3	0	0	1	0	0
10  0	0	1	0	0	4	3	0	0	2
